************************************************************************
file with basedata            : cr128_.bas
initial value random generator: 53766584
************************************************************************
projects                      :  1
jobs (incl. supersource/sink ):  18
horizon                       :  143
RESOURCES
  - renewable                 :  1   R
  - nonrenewable              :  2   N
  - doubly constrained        :  0   D
************************************************************************
PROJECT INFORMATION:
pronr.  #jobs rel.date duedate tardcost  MPM-Time
    1     16      0       25        0       25
************************************************************************
PRECEDENCE RELATIONS:
jobnr.    #modes  #successors   successors
   1        1          3           2   3   4
   2        3          2           5   8
   3        3          3           6   9  15
   4        3          2           5   8
   5        3          2           6   7
   6        3          3          11  12  13
   7        3          3           9  10  17
   8        3          3          10  14  15
   9        3          3          11  12  13
  10        3          2          11  12
  11        3          1          16
  12        3          1          16
  13        3          1          14
  14        3          1          16
  15        3          1          18
  16        3          1          18
  17        3          1          18
  18        1          0        
************************************************************************
REQUESTS/DURATIONS:
jobnr. mode duration  R 1  N 1  N 2
------------------------------------------------------------------------
  1      1     0       0    0    0
  2      1     2       0    0    5
         2     3       0    0    4
         3     9       9    6    0
  3      1     1       0    0    5
         2     3       2    7    0
         3    10       0    7    0
  4      1     2       7    5    0
         2     8       4    0    6
         3    10       0    5    0
  5      1     8       6    1    0
         2     8       0    0    3
         3     8       0    2    0
  6      1     2       7    0    7
         2     4       0    0    6
         3    10       4    2    0
  7      1     4      10    0    7
         2     9       0    2    0
         3    10       0    0    5
  8      1     8       8    9    0
         2    10       8    8    0
         3    10       0    0    6
  9      1     1       0    0    9
         2     8       0    0    7
         3    10       2    6    0
 10      1     4      10    9    0
         2     5       8    8    0
         3    10       0    7    0
 11      1     2       5    0    9
         2     7       0    0    9
         3     8       4    7    0
 12      1     2       1    5    0
         2     4       0    0    8
         3     6       0    5    0
 13      1     1       7    7    0
         2     1       9    6    0
         3     8       0    6    0
 14      1     2       6    5    0
         2     4       0    5    0
         3     8       0    4    0
 15      1     1       0    6    0
         2     5       0    0    7
         3     7       4    4    0
 16      1     5       7    0    6
         2    10       4    6    0
         3    10       0    0    6
 17      1     2       7    7    0
         2     9       6    7    0
         3     9       0    0    6
 18      1     0       0    0    0
************************************************************************
RESOURCEAVAILABILITIES:
  R 1  N 1  N 2
   23   91   84
************************************************************************
